c description: Tseitin formula on Random 6-regular graph of 13 vertices, with odd charge
c generator: CNFgen (0.9.2)
c copyright: (C) 2012-2022 Massimo Lauria <massimo.lauria@uniroma1.it>
c url: https://massimolauria.net/cnfgen
c command line: cnfgen tseitin 13 6
c
p cnf 39 416
1 2 3 4 5 6 0
1 2 3 4 -5 -6 0
1 2 3 -4 5 -6 0
1 2 3 -4 -5 6 0
1 2 -3 4 5 -6 0
1 2 -3 4 -5 6 0
1 2 -3 -4 5 6 0
1 2 -3 -4 -5 -6 0
1 -2 3 4 5 -6 0
1 -2 3 4 -5 6 0
1 -2 3 -4 5 6 0
1 -2 3 -4 -5 -6 0
1 -2 -3 4 5 6 0
1 -2 -3 4 -5 -6 0
1 -2 -3 -4 5 -6 0
1 -2 -3 -4 -5 6 0
-1 2 3 4 5 -6 0
-1 2 3 4 -5 6 0
-1 2 3 -4 5 6 0
-1 2 3 -4 -5 -6 0
-1 2 -3 4 5 6 0
-1 2 -3 4 -5 -6 0
-1 2 -3 -4 5 -6 0
-1 2 -3 -4 -5 6 0
-1 -2 3 4 5 6 0
-1 -2 3 4 -5 -6 0
-1 -2 3 -4 5 -6 0
-1 -2 3 -4 -5 6 0
-1 -2 -3 4 5 -6 0
-1 -2 -3 4 -5 6 0
-1 -2 -3 -4 5 6 0
-1 -2 -3 -4 -5 -6 0
1 7 8 9 10 11 0
1 7 8 9 -10 -11 0
1 7 8 -9 10 -11 0
1 7 8 -9 -10 11 0
1 7 -8 9 10 -11 0
1 7 -8 9 -10 11 0
1 7 -8 -9 10 11 0
1 7 -8 -9 -10 -11 0
1 -7 8 9 10 -11 0
1 -7 8 9 -10 11 0
1 -7 8 -9 10 11 0
1 -7 8 -9 -10 -11 0
1 -7 -8 9 10 11 0
1 -7 -8 9 -10 -11 0
1 -7 -8 -9 10 -11 0
1 -7 -8 -9 -10 11 0
-1 7 8 9 10 -11 0
-1 7 8 9 -10 11 0
-1 7 8 -9 10 11 0
-1 7 8 -9 -10 -11 0
-1 7 -8 9 10 11 0
-1 7 -8 9 -10 -11 0
-1 7 -8 -9 10 -11 0
-1 7 -8 -9 -10 11 0
-1 -7 8 9 10 11 0
-1 -7 8 9 -10 -11 0
-1 -7 8 -9 10 -11 0
-1 -7 8 -9 -10 11 0
-1 -7 -8 9 10 -11 0
-1 -7 -8 9 -10 11 0
-1 -7 -8 -9 10 11 0
-1 -7 -8 -9 -10 -11 0
7 12 13 14 15 16 0
7 12 13 14 -15 -16 0
7 12 13 -14 15 -16 0
7 12 13 -14 -15 16 0
7 12 -13 14 15 -16 0
7 12 -13 14 -15 16 0
7 12 -13 -14 15 16 0
7 12 -13 -14 -15 -16 0
7 -12 13 14 15 -16 0
7 -12 13 14 -15 16 0
7 -12 13 -14 15 16 0
7 -12 13 -14 -15 -16 0
7 -12 -13 14 15 16 0
7 -12 -13 14 -15 -16 0
7 -12 -13 -14 15 -16 0
7 -12 -13 -14 -15 16 0
-7 12 13 14 15 -16 0
-7 12 13 14 -15 16 0
-7 12 13 -14 15 16 0
-7 12 13 -14 -15 -16 0
-7 12 -13 14 15 16 0
-7 12 -13 14 -15 -16 0
-7 12 -13 -14 15 -16 0
-7 12 -13 -14 -15 16 0
-7 -12 13 14 15 16 0
-7 -12 13 14 -15 -16 0
-7 -12 13 -14 15 -16 0
-7 -12 13 -14 -15 16 0
-7 -12 -13 14 15 -16 0
-7 -12 -13 14 -15 16 0
-7 -12 -13 -14 15 16 0
-7 -12 -13 -14 -15 -16 0
17 18 19 20 21 -22 0
17 18 19 20 -21 22 0
17 18 19 -20 21 22 0
17 18 19 -20 -21 -22 0
17 18 -19 20 21 22 0
17 18 -19 20 -21 -22 0
17 18 -19 -20 21 -22 0
17 18 -19 -20 -21 22 0
17 -18 19 20 21 22 0
17 -18 19 20 -21 -22 0
17 -18 19 -20 21 -22 0
17 -18 19 -20 -21 22 0
17 -18 -19 20 21 -22 0
17 -18 -19 20 -21 22 0
17 -18 -19 -20 21 22 0
17 -18 -19 -20 -21 -22 0
-17 18 19 20 21 22 0
-17 18 19 20 -21 -22 0
-17 18 19 -20 21 -22 0
-17 18 19 -20 -21 22 0
-17 18 -19 20 21 -22 0
-17 18 -19 20 -21 22 0
-17 18 -19 -20 21 22 0
-17 18 -19 -20 -21 -22 0
-17 -18 19 20 21 -22 0
-17 -18 19 20 -21 22 0
-17 -18 19 -20 21 22 0
-17 -18 19 -20 -21 -22 0
-17 -18 -19 20 21 22 0
-17 -18 -19 20 -21 -22 0
-17 -18 -19 -20 21 -22 0
-17 -18 -19 -20 -21 22 0
17 23 24 25 26 -27 0
17 23 24 25 -26 27 0
17 23 24 -25 26 27 0
17 23 24 -25 -26 -27 0
17 23 -24 25 26 27 0
17 23 -24 25 -26 -27 0
17 23 -24 -25 26 -27 0
17 23 -24 -25 -26 27 0
17 -23 24 25 26 27 0
17 -23 24 25 -26 -27 0
17 -23 24 -25 26 -27 0
17 -23 24 -25 -26 27 0
17 -23 -24 25 26 -27 0
17 -23 -24 25 -26 27 0
17 -23 -24 -25 26 27 0
17 -23 -24 -25 -26 -27 0
-17 23 24 25 26 27 0
-17 23 24 25 -26 -27 0
-17 23 24 -25 26 -27 0
-17 23 24 -25 -26 27 0
-17 23 -24 25 26 -27 0
-17 23 -24 25 -26 27 0
-17 23 -24 -25 26 27 0
-17 23 -24 -25 -26 -27 0
-17 -23 24 25 26 -27 0
-17 -23 24 25 -26 27 0
-17 -23 24 -25 26 27 0
-17 -23 24 -25 -26 -27 0
-17 -23 -24 25 26 27 0
-17 -23 -24 25 -26 -27 0
-17 -23 -24 -25 26 -27 0
-17 -23 -24 -25 -26 27 0
2 12 18 23 28 29 0
2 12 18 23 -28 -29 0
2 12 18 -23 28 -29 0
2 12 18 -23 -28 29 0
2 12 -18 23 28 -29 0
2 12 -18 23 -28 29 0
2 12 -18 -23 28 29 0
2 12 -18 -23 -28 -29 0
2 -12 18 23 28 -29 0
2 -12 18 23 -28 29 0
2 -12 18 -23 28 29 0
2 -12 18 -23 -28 -29 0
2 -12 -18 23 28 29 0
2 -12 -18 23 -28 -29 0
2 -12 -18 -23 28 -29 0
2 -12 -18 -23 -28 29 0
-2 12 18 23 28 -29 0
-2 12 18 23 -28 29 0
-2 12 18 -23 28 29 0
-2 12 18 -23 -28 -29 0
-2 12 -18 23 28 29 0
-2 12 -18 23 -28 -29 0
-2 12 -18 -23 28 -29 0
-2 12 -18 -23 -28 29 0
-2 -12 18 23 28 29 0
-2 -12 18 23 -28 -29 0
-2 -12 18 -23 28 -29 0
-2 -12 18 -23 -28 29 0
-2 -12 -18 23 28 -29 0
-2 -12 -18 23 -28 29 0
-2 -12 -18 -23 28 29 0
-2 -12 -18 -23 -28 -29 0
3 24 28 30 31 32 0
3 24 28 30 -31 -32 0
3 24 28 -30 31 -32 0
3 24 28 -30 -31 32 0
3 24 -28 30 31 -32 0
3 24 -28 30 -31 32 0
3 24 -28 -30 31 32 0
3 24 -28 -30 -31 -32 0
3 -24 28 30 31 -32 0
3 -24 28 30 -31 32 0
3 -24 28 -30 31 32 0
3 -24 28 -30 -31 -32 0
3 -24 -28 30 31 32 0
3 -24 -28 30 -31 -32 0
3 -24 -28 -30 31 -32 0
3 -24 -28 -30 -31 32 0
-3 24 28 30 31 -32 0
-3 24 28 30 -31 32 0
-3 24 28 -30 31 32 0
-3 24 28 -30 -31 -32 0
-3 24 -28 30 31 32 0
-3 24 -28 30 -31 -32 0
-3 24 -28 -30 31 -32 0
-3 24 -28 -30 -31 32 0
-3 -24 28 30 31 32 0
-3 -24 28 30 -31 -32 0
-3 -24 28 -30 31 -32 0
-3 -24 28 -30 -31 32 0
-3 -24 -28 30 31 -32 0
-3 -24 -28 30 -31 32 0
-3 -24 -28 -30 31 32 0
-3 -24 -28 -30 -31 -32 0
4 8 13 33 34 35 0
4 8 13 33 -34 -35 0
4 8 13 -33 34 -35 0
4 8 13 -33 -34 35 0
4 8 -13 33 34 -35 0
4 8 -13 33 -34 35 0
4 8 -13 -33 34 35 0
4 8 -13 -33 -34 -35 0
4 -8 13 33 34 -35 0
4 -8 13 33 -34 35 0
4 -8 13 -33 34 35 0
4 -8 13 -33 -34 -35 0
4 -8 -13 33 34 35 0
4 -8 -13 33 -34 -35 0
4 -8 -13 -33 34 -35 0
4 -8 -13 -33 -34 35 0
-4 8 13 33 34 -35 0
-4 8 13 33 -34 35 0
-4 8 13 -33 34 35 0
-4 8 13 -33 -34 -35 0
-4 8 -13 33 34 35 0
-4 8 -13 33 -34 -35 0
-4 8 -13 -33 34 -35 0
-4 8 -13 -33 -34 35 0
-4 -8 13 33 34 35 0
-4 -8 13 33 -34 -35 0
-4 -8 13 -33 34 -35 0
-4 -8 13 -33 -34 35 0
-4 -8 -13 33 34 -35 0
-4 -8 -13 33 -34 35 0
-4 -8 -13 -33 34 35 0
-4 -8 -13 -33 -34 -35 0
9 14 25 33 36 37 0
9 14 25 33 -36 -37 0
9 14 25 -33 36 -37 0
9 14 25 -33 -36 37 0
9 14 -25 33 36 -37 0
9 14 -25 33 -36 37 0
9 14 -25 -33 36 37 0
9 14 -25 -33 -36 -37 0
9 -14 25 33 36 -37 0
9 -14 25 33 -36 37 0
9 -14 25 -33 36 37 0
9 -14 25 -33 -36 -37 0
9 -14 -25 33 36 37 0
9 -14 -25 33 -36 -37 0
9 -14 -25 -33 36 -37 0
9 -14 -25 -33 -36 37 0
-9 14 25 33 36 -37 0
-9 14 25 33 -36 37 0
-9 14 25 -33 36 37 0
-9 14 25 -33 -36 -37 0
-9 14 -25 33 36 37 0
-9 14 -25 33 -36 -37 0
-9 14 -25 -33 36 -37 0
-9 14 -25 -33 -36 37 0
-9 -14 25 33 36 37 0
-9 -14 25 33 -36 -37 0
-9 -14 25 -33 36 -37 0
-9 -14 25 -33 -36 37 0
-9 -14 -25 33 36 -37 0
-9 -14 -25 33 -36 37 0
-9 -14 -25 -33 36 37 0
-9 -14 -25 -33 -36 -37 0
5 10 15 19 34 38 0
5 10 15 19 -34 -38 0
5 10 15 -19 34 -38 0
5 10 15 -19 -34 38 0
5 10 -15 19 34 -38 0
5 10 -15 19 -34 38 0
5 10 -15 -19 34 38 0
5 10 -15 -19 -34 -38 0
5 -10 15 19 34 -38 0
5 -10 15 19 -34 38 0
5 -10 15 -19 34 38 0
5 -10 15 -19 -34 -38 0
5 -10 -15 19 34 38 0
5 -10 -15 19 -34 -38 0
5 -10 -15 -19 34 -38 0
5 -10 -15 -19 -34 38 0
-5 10 15 19 34 -38 0
-5 10 15 19 -34 38 0
-5 10 15 -19 34 38 0
-5 10 15 -19 -34 -38 0
-5 10 -15 19 34 38 0
-5 10 -15 19 -34 -38 0
-5 10 -15 -19 34 -38 0
-5 10 -15 -19 -34 38 0
-5 -10 15 19 34 38 0
-5 -10 15 19 -34 -38 0
-5 -10 15 -19 34 -38 0
-5 -10 15 -19 -34 38 0
-5 -10 -15 19 34 -38 0
-5 -10 -15 19 -34 38 0
-5 -10 -15 -19 34 38 0
-5 -10 -15 -19 -34 -38 0
11 20 26 30 36 39 0
11 20 26 30 -36 -39 0
11 20 26 -30 36 -39 0
11 20 26 -30 -36 39 0
11 20 -26 30 36 -39 0
11 20 -26 30 -36 39 0
11 20 -26 -30 36 39 0
11 20 -26 -30 -36 -39 0
11 -20 26 30 36 -39 0
11 -20 26 30 -36 39 0
11 -20 26 -30 36 39 0
11 -20 26 -30 -36 -39 0
11 -20 -26 30 36 39 0
11 -20 -26 30 -36 -39 0
11 -20 -26 -30 36 -39 0
11 -20 -26 -30 -36 39 0
-11 20 26 30 36 -39 0
-11 20 26 30 -36 39 0
-11 20 26 -30 36 39 0
-11 20 26 -30 -36 -39 0
-11 20 -26 30 36 39 0
-11 20 -26 30 -36 -39 0
-11 20 -26 -30 36 -39 0
-11 20 -26 -30 -36 39 0
-11 -20 26 30 36 39 0
-11 -20 26 30 -36 -39 0
-11 -20 26 -30 36 -39 0
-11 -20 26 -30 -36 39 0
-11 -20 -26 30 36 -39 0
-11 -20 -26 30 -36 39 0
-11 -20 -26 -30 36 39 0
-11 -20 -26 -30 -36 -39 0
6 16 21 27 31 -39 0
6 16 21 27 -31 39 0
6 16 21 -27 31 39 0
6 16 21 -27 -31 -39 0
6 16 -21 27 31 39 0
6 16 -21 27 -31 -39 0
6 16 -21 -27 31 -39 0
6 16 -21 -27 -31 39 0
6 -16 21 27 31 39 0
6 -16 21 27 -31 -39 0
6 -16 21 -27 31 -39 0
6 -16 21 -27 -31 39 0
6 -16 -21 27 31 -39 0
6 -16 -21 27 -31 39 0
6 -16 -21 -27 31 39 0
6 -16 -21 -27 -31 -39 0
-6 16 21 27 31 39 0
-6 16 21 27 -31 -39 0
-6 16 21 -27 31 -39 0
-6 16 21 -27 -31 39 0
-6 16 -21 27 31 -39 0
-6 16 -21 27 -31 39 0
-6 16 -21 -27 31 39 0
-6 16 -21 -27 -31 -39 0
-6 -16 21 27 31 -39 0
-6 -16 21 27 -31 39 0
-6 -16 21 -27 31 39 0
-6 -16 21 -27 -31 -39 0
-6 -16 -21 27 31 39 0
-6 -16 -21 27 -31 -39 0
-6 -16 -21 -27 31 -39 0
-6 -16 -21 -27 -31 39 0
22 29 32 35 37 -38 0
22 29 32 35 -37 38 0
22 29 32 -35 37 38 0
22 29 32 -35 -37 -38 0
22 29 -32 35 37 38 0
22 29 -32 35 -37 -38 0
22 29 -32 -35 37 -38 0
22 29 -32 -35 -37 38 0
22 -29 32 35 37 38 0
22 -29 32 35 -37 -38 0
22 -29 32 -35 37 -38 0
22 -29 32 -35 -37 38 0
22 -29 -32 35 37 -38 0
22 -29 -32 35 -37 38 0
22 -29 -32 -35 37 38 0
22 -29 -32 -35 -37 -38 0
-22 29 32 35 37 38 0
-22 29 32 35 -37 -38 0
-22 29 32 -35 37 -38 0
-22 29 32 -35 -37 38 0
-22 29 -32 35 37 -38 0
-22 29 -32 35 -37 38 0
-22 29 -32 -35 37 38 0
-22 29 -32 -35 -37 -38 0
-22 -29 32 35 37 -38 0
-22 -29 32 35 -37 38 0
-22 -29 32 -35 37 38 0
-22 -29 32 -35 -37 -38 0
-22 -29 -32 35 37 38 0
-22 -29 -32 35 -37 -38 0
-22 -29 -32 -35 37 -38 0
-22 -29 -32 -35 -37 38 0
